NAME : single
TYPE : ATSP
DIMENSION : 11
EDGE_WEIGHT_TYPE : EXPLICIT
EDGE_WEIGHT_FORMAT : FULL_MATRIX
EDGE_WEIGHT_SECTION
0 441 565 508 467 293 185 271 225 512 571 
0 0 203 96 56 147 254 241 229 200 312 
0 203 0 107 260 248 338 250 331 50000 50000 
0 96 107 0 152 205 287 198 273 251 374 
0 56 260 152 0 178 288 297 225 198 331 
0 147 248 205 178 0 178 164 293 264 298 
0 254 338 287 288 178 0 88 116 310 288 
0 241 250 198 297 164 88 0 129 258 291 
0 229 331 273 225 293 116 129 0 209 162 
0 200 50000 251 198 264 310 258 209 0 190 
0 312 50000 374 331 298 288 291 162 190 0 
EOF